(set-info :smt-lib-version 2.6)
(set-logic ALIA)
(set-info :source |
Generated by the tool Ultimate Automizer [1,2] which implements
an automata theoretic approach [3] to software verification.

This SMT script belongs to a set of SMT scripts that was generated by
applying Ultimate Automizer to benchmarks [4] from the SV-COMP 2023 [5,6].
This script may not contain all SMT commands that Ultimate Automizer
issued. In order to meet the restrictions for SMT-COMP benchmarks 
we dropped the commands for getting values (resp. models), 
unsatisfiable cores, and interpolants.

2023-03-21, Matthias Heizmann (heizmann@informatik.uni-freiburg.de)

[1] https://ultimate.informatik.uni-freiburg.de/automizer/
[2] Matthias Heizmann, Max Barth, Daniel Dietsch, Leonard Fichtner,
     Jochen Hoenicke, Dominik Klumpp, Mehdi Naouar, Tanja Schindler,
     Frank Schüssele, Andreas Podelski: Ultimate Automizer and the
     CommuHash Normal Form (Competition Contribution). TACAS 2023
[3] Matthias Heizmann, Jochen Hoenicke, Andreas Podelski: Software Model
     Checking for People Who Love Automata. CAV 2013
[4] https://github.com/sosy-lab/sv-benchmarks
[5] Dirk Beyer: Competition on Software Verification and
     Witness Validation: SV-COMP 2023.  TACAS 2023
[6] https://sv-comp.sosy-lab.org/2023/
|)
(set-info :license "https://creativecommons.org/licenses/by/4.0/")
(set-info :category "industrial")
(set-info :status unknown)
(declare-fun ~unnamed0~0~P_ALL () Int)
(declare-fun ~unnamed0~0~P_PID () Int)
(declare-fun ~unnamed0~0~P_PGID () Int)
(declare-fun |c_#memory_int| () (Array Int (Array Int Int)))
(declare-fun |c_ULTIMATE.start_main_~data_init~0#1| () Int)
(declare-fun |c_ULTIMATE.start_sll_circular_create_~new_head~0#1.offset| () Int)
(declare-fun |c_ULTIMATE.start_sll_circular_create_~last~0#1.offset| () Int)
(declare-fun |c_ULTIMATE.start_sll_circular_create_~head~0#1.base| () Int)
(declare-fun |c_ULTIMATE.start_sll_circular_create_~head~0#1.offset| () Int)
(assert (= ~unnamed0~0~P_ALL 0))
(assert (= ~unnamed0~0~P_PID 1))
(assert (= 2 ~unnamed0~0~P_PGID))
(assert (let ((.cse1 (+ 8 |c_ULTIMATE.start_sll_circular_create_~new_head~0#1.offset|)) (.cse8 (= |c_ULTIMATE.start_sll_circular_create_~last~0#1.offset| |c_ULTIMATE.start_sll_circular_create_~new_head~0#1.offset|)) (.cse2 (+ |c_ULTIMATE.start_sll_circular_create_~head~0#1.offset| 8))) (and (or (and (forall ((|ULTIMATE.start_sll_circular_create_~new_head~0#1.base| Int)) (or (forall ((v_ArrVal_388 Int) (v_ArrVal_384 (Array Int Int)) (|ULTIMATE.start_sll_circular_create_~last~0#1.base| Int) (v_ArrVal_396 (Array Int Int))) (let ((.cse0 (select (store (let ((.cse3 (store |c_#memory_int| |ULTIMATE.start_sll_circular_create_~new_head~0#1.base| v_ArrVal_384))) (store .cse3 |ULTIMATE.start_sll_circular_create_~last~0#1.base| (store (select .cse3 |ULTIMATE.start_sll_circular_create_~last~0#1.base|) |c_ULTIMATE.start_sll_circular_create_~last~0#1.offset| v_ArrVal_388))) |ULTIMATE.start_sll_circular_create_~new_head~0#1.base| v_ArrVal_396) |c_ULTIMATE.start_sll_circular_create_~head~0#1.base|))) (or (= |c_ULTIMATE.start_main_~data_init~0#1| (select .cse0 .cse1)) (= |c_ULTIMATE.start_main_~data_init~0#1| (select .cse0 .cse2))))) (= |ULTIMATE.start_sll_circular_create_~new_head~0#1.base| |c_ULTIMATE.start_sll_circular_create_~head~0#1.base|))) (forall ((|ULTIMATE.start_sll_circular_create_~new_head~0#1.base| Int)) (or (forall ((|ULTIMATE.start_sll_circular_create_~last~0#1.base| Int) (v_ArrVal_396 (Array Int Int))) (or (= (select v_ArrVal_396 .cse1) |c_ULTIMATE.start_main_~data_init~0#1|) (forall ((v_ArrVal_388 Int) (v_ArrVal_384 (Array Int Int))) (let ((.cse4 (select (store (let ((.cse5 (store |c_#memory_int| |ULTIMATE.start_sll_circular_create_~new_head~0#1.base| v_ArrVal_384))) (store .cse5 |ULTIMATE.start_sll_circular_create_~last~0#1.base| (store (select .cse5 |ULTIMATE.start_sll_circular_create_~last~0#1.base|) |c_ULTIMATE.start_sll_circular_create_~last~0#1.offset| v_ArrVal_388))) |ULTIMATE.start_sll_circular_create_~new_head~0#1.base| v_ArrVal_396) |c_ULTIMATE.start_sll_circular_create_~head~0#1.base|))) (or (= |c_ULTIMATE.start_main_~data_init~0#1| (select .cse4 .cse1)) (= |c_ULTIMATE.start_main_~data_init~0#1| (select .cse4 .cse2))))))) (= |ULTIMATE.start_sll_circular_create_~new_head~0#1.base| |c_ULTIMATE.start_sll_circular_create_~head~0#1.base|))) (forall ((|ULTIMATE.start_sll_circular_create_~new_head~0#1.base| Int)) (or (forall ((v_ArrVal_388 Int) (v_ArrVal_384 (Array Int Int)) (|ULTIMATE.start_sll_circular_create_~last~0#1.base| Int) (v_ArrVal_396 (Array Int Int))) (= |c_ULTIMATE.start_main_~data_init~0#1| (select (select (store (let ((.cse6 (store |c_#memory_int| |ULTIMATE.start_sll_circular_create_~new_head~0#1.base| v_ArrVal_384))) (store .cse6 |ULTIMATE.start_sll_circular_create_~last~0#1.base| (store (select .cse6 |ULTIMATE.start_sll_circular_create_~last~0#1.base|) |c_ULTIMATE.start_sll_circular_create_~last~0#1.offset| v_ArrVal_388))) |ULTIMATE.start_sll_circular_create_~new_head~0#1.base| v_ArrVal_396) |c_ULTIMATE.start_sll_circular_create_~head~0#1.base|) .cse2))) (= |ULTIMATE.start_sll_circular_create_~new_head~0#1.base| |c_ULTIMATE.start_sll_circular_create_~head~0#1.base|))) (forall ((|ULTIMATE.start_sll_circular_create_~new_head~0#1.base| Int)) (or (forall ((v_ArrVal_388 Int) (v_ArrVal_384 (Array Int Int)) (|ULTIMATE.start_sll_circular_create_~last~0#1.base| Int) (v_ArrVal_396 (Array Int Int))) (or (= (select v_ArrVal_396 .cse1) |c_ULTIMATE.start_main_~data_init~0#1|) (= |c_ULTIMATE.start_main_~data_init~0#1| (select (select (store (let ((.cse7 (store |c_#memory_int| |ULTIMATE.start_sll_circular_create_~new_head~0#1.base| v_ArrVal_384))) (store .cse7 |ULTIMATE.start_sll_circular_create_~last~0#1.base| (store (select .cse7 |ULTIMATE.start_sll_circular_create_~last~0#1.base|) |c_ULTIMATE.start_sll_circular_create_~last~0#1.offset| v_ArrVal_388))) |ULTIMATE.start_sll_circular_create_~new_head~0#1.base| v_ArrVal_396) |c_ULTIMATE.start_sll_circular_create_~head~0#1.base|) .cse2)))) (= |ULTIMATE.start_sll_circular_create_~new_head~0#1.base| |c_ULTIMATE.start_sll_circular_create_~head~0#1.base|)))) .cse8) (forall ((|ULTIMATE.start_sll_circular_create_~new_head~0#1.base| Int)) (or (forall ((|ULTIMATE.start_sll_circular_create_~last~0#1.base| Int)) (or (= |ULTIMATE.start_sll_circular_create_~new_head~0#1.base| |ULTIMATE.start_sll_circular_create_~last~0#1.base|) (forall ((v_ArrVal_396 (Array Int Int))) (or (= (select v_ArrVal_396 .cse1) |c_ULTIMATE.start_main_~data_init~0#1|) (forall ((v_ArrVal_388 Int) (v_ArrVal_384 (Array Int Int))) (let ((.cse9 (select (store (let ((.cse10 (store |c_#memory_int| |ULTIMATE.start_sll_circular_create_~new_head~0#1.base| v_ArrVal_384))) (store .cse10 |ULTIMATE.start_sll_circular_create_~last~0#1.base| (store (select .cse10 |ULTIMATE.start_sll_circular_create_~last~0#1.base|) |c_ULTIMATE.start_sll_circular_create_~last~0#1.offset| v_ArrVal_388))) |ULTIMATE.start_sll_circular_create_~new_head~0#1.base| v_ArrVal_396) |c_ULTIMATE.start_sll_circular_create_~head~0#1.base|))) (or (= |c_ULTIMATE.start_main_~data_init~0#1| (select .cse9 .cse1)) (= |c_ULTIMATE.start_main_~data_init~0#1| (select .cse9 .cse2))))))))) (= |ULTIMATE.start_sll_circular_create_~new_head~0#1.base| |c_ULTIMATE.start_sll_circular_create_~head~0#1.base|))) (forall ((|ULTIMATE.start_sll_circular_create_~new_head~0#1.base| Int)) (or (= |ULTIMATE.start_sll_circular_create_~new_head~0#1.base| |c_ULTIMATE.start_sll_circular_create_~head~0#1.base|) (forall ((|ULTIMATE.start_sll_circular_create_~last~0#1.base| Int)) (or (= |ULTIMATE.start_sll_circular_create_~new_head~0#1.base| |ULTIMATE.start_sll_circular_create_~last~0#1.base|) (forall ((v_ArrVal_388 Int) (v_ArrVal_384 (Array Int Int)) (v_ArrVal_396 (Array Int Int))) (let ((.cse11 (select (store (let ((.cse12 (store |c_#memory_int| |ULTIMATE.start_sll_circular_create_~new_head~0#1.base| v_ArrVal_384))) (store .cse12 |ULTIMATE.start_sll_circular_create_~last~0#1.base| (store (select .cse12 |ULTIMATE.start_sll_circular_create_~last~0#1.base|) |c_ULTIMATE.start_sll_circular_create_~last~0#1.offset| v_ArrVal_388))) |ULTIMATE.start_sll_circular_create_~new_head~0#1.base| v_ArrVal_396) |c_ULTIMATE.start_sll_circular_create_~head~0#1.base|))) (or (= |c_ULTIMATE.start_main_~data_init~0#1| (select .cse11 .cse1)) (= |c_ULTIMATE.start_main_~data_init~0#1| (select .cse11 .cse2))))))))) (forall ((|ULTIMATE.start_sll_circular_create_~new_head~0#1.base| Int)) (or (forall ((|ULTIMATE.start_sll_circular_create_~last~0#1.base| Int)) (or (= |ULTIMATE.start_sll_circular_create_~new_head~0#1.base| |ULTIMATE.start_sll_circular_create_~last~0#1.base|) (forall ((v_ArrVal_388 Int) (v_ArrVal_384 (Array Int Int)) (v_ArrVal_396 (Array Int Int))) (= |c_ULTIMATE.start_main_~data_init~0#1| (select (select (store (let ((.cse13 (store |c_#memory_int| |ULTIMATE.start_sll_circular_create_~new_head~0#1.base| v_ArrVal_384))) (store .cse13 |ULTIMATE.start_sll_circular_create_~last~0#1.base| (store (select .cse13 |ULTIMATE.start_sll_circular_create_~last~0#1.base|) |c_ULTIMATE.start_sll_circular_create_~last~0#1.offset| v_ArrVal_388))) |ULTIMATE.start_sll_circular_create_~new_head~0#1.base| v_ArrVal_396) |c_ULTIMATE.start_sll_circular_create_~head~0#1.base|) .cse2))))) (= |ULTIMATE.start_sll_circular_create_~new_head~0#1.base| |c_ULTIMATE.start_sll_circular_create_~head~0#1.base|))) (forall ((|ULTIMATE.start_sll_circular_create_~new_head~0#1.base| Int)) (or (forall ((|ULTIMATE.start_sll_circular_create_~last~0#1.base| Int)) (or (= |ULTIMATE.start_sll_circular_create_~new_head~0#1.base| |ULTIMATE.start_sll_circular_create_~last~0#1.base|) (forall ((v_ArrVal_388 Int) (v_ArrVal_384 (Array Int Int)) (v_ArrVal_396 (Array Int Int))) (or (= (select v_ArrVal_396 .cse1) |c_ULTIMATE.start_main_~data_init~0#1|) (= |c_ULTIMATE.start_main_~data_init~0#1| (select (select (store (let ((.cse14 (store |c_#memory_int| |ULTIMATE.start_sll_circular_create_~new_head~0#1.base| v_ArrVal_384))) (store .cse14 |ULTIMATE.start_sll_circular_create_~last~0#1.base| (store (select .cse14 |ULTIMATE.start_sll_circular_create_~last~0#1.base|) |c_ULTIMATE.start_sll_circular_create_~last~0#1.offset| v_ArrVal_388))) |ULTIMATE.start_sll_circular_create_~new_head~0#1.base| v_ArrVal_396) |c_ULTIMATE.start_sll_circular_create_~head~0#1.base|) .cse2)))))) (= |ULTIMATE.start_sll_circular_create_~new_head~0#1.base| |c_ULTIMATE.start_sll_circular_create_~head~0#1.base|))) (or (and (forall ((|ULTIMATE.start_sll_circular_create_~last~0#1.base| Int) (|ULTIMATE.start_sll_circular_create_~new_head~0#1.base| Int)) (or (= |ULTIMATE.start_sll_circular_create_~new_head~0#1.base| |ULTIMATE.start_sll_circular_create_~last~0#1.base|) (forall ((v_ArrVal_388 Int) (v_ArrVal_384 (Array Int Int)) (v_ArrVal_396 (Array Int Int))) (or (= (select v_ArrVal_396 .cse1) |c_ULTIMATE.start_main_~data_init~0#1|) (= |c_ULTIMATE.start_main_~data_init~0#1| (select (select (store (let ((.cse15 (store |c_#memory_int| |ULTIMATE.start_sll_circular_create_~new_head~0#1.base| v_ArrVal_384))) (store .cse15 |ULTIMATE.start_sll_circular_create_~last~0#1.base| (store (select .cse15 |ULTIMATE.start_sll_circular_create_~last~0#1.base|) |c_ULTIMATE.start_sll_circular_create_~last~0#1.offset| v_ArrVal_388))) |ULTIMATE.start_sll_circular_create_~new_head~0#1.base| v_ArrVal_396) |c_ULTIMATE.start_sll_circular_create_~head~0#1.base|) .cse2)))))) (forall ((|ULTIMATE.start_sll_circular_create_~last~0#1.base| Int) (|ULTIMATE.start_sll_circular_create_~new_head~0#1.base| Int)) (or (= |ULTIMATE.start_sll_circular_create_~new_head~0#1.base| |ULTIMATE.start_sll_circular_create_~last~0#1.base|) (forall ((v_ArrVal_396 (Array Int Int))) (or (= (select v_ArrVal_396 .cse1) |c_ULTIMATE.start_main_~data_init~0#1|) (forall ((v_ArrVal_388 Int) (v_ArrVal_384 (Array Int Int))) (let ((.cse16 (select (store (let ((.cse17 (store |c_#memory_int| |ULTIMATE.start_sll_circular_create_~new_head~0#1.base| v_ArrVal_384))) (store .cse17 |ULTIMATE.start_sll_circular_create_~last~0#1.base| (store (select .cse17 |ULTIMATE.start_sll_circular_create_~last~0#1.base|) |c_ULTIMATE.start_sll_circular_create_~last~0#1.offset| v_ArrVal_388))) |ULTIMATE.start_sll_circular_create_~new_head~0#1.base| v_ArrVal_396) |c_ULTIMATE.start_sll_circular_create_~head~0#1.base|))) (or (= |c_ULTIMATE.start_main_~data_init~0#1| (select .cse16 .cse1)) (= |c_ULTIMATE.start_main_~data_init~0#1| (select .cse16 .cse2))))))))) (forall ((|ULTIMATE.start_sll_circular_create_~last~0#1.base| Int) (|ULTIMATE.start_sll_circular_create_~new_head~0#1.base| Int)) (or (= |ULTIMATE.start_sll_circular_create_~new_head~0#1.base| |ULTIMATE.start_sll_circular_create_~last~0#1.base|) (forall ((v_ArrVal_388 Int) (v_ArrVal_384 (Array Int Int)) (v_ArrVal_396 (Array Int Int))) (let ((.cse18 (select (store (let ((.cse19 (store |c_#memory_int| |ULTIMATE.start_sll_circular_create_~new_head~0#1.base| v_ArrVal_384))) (store .cse19 |ULTIMATE.start_sll_circular_create_~last~0#1.base| (store (select .cse19 |ULTIMATE.start_sll_circular_create_~last~0#1.base|) |c_ULTIMATE.start_sll_circular_create_~last~0#1.offset| v_ArrVal_388))) |ULTIMATE.start_sll_circular_create_~new_head~0#1.base| v_ArrVal_396) |c_ULTIMATE.start_sll_circular_create_~head~0#1.base|))) (or (= |c_ULTIMATE.start_main_~data_init~0#1| (select .cse18 .cse1)) (= |c_ULTIMATE.start_main_~data_init~0#1| (select .cse18 .cse2))))))) (or (and (forall ((v_ArrVal_388 Int) (v_ArrVal_384 (Array Int Int)) (|ULTIMATE.start_sll_circular_create_~last~0#1.base| Int) (v_ArrVal_396 (Array Int Int)) (|ULTIMATE.start_sll_circular_create_~new_head~0#1.base| Int)) (let ((.cse20 (select (store (let ((.cse21 (store |c_#memory_int| |ULTIMATE.start_sll_circular_create_~new_head~0#1.base| v_ArrVal_384))) (store .cse21 |ULTIMATE.start_sll_circular_create_~last~0#1.base| (store (select .cse21 |ULTIMATE.start_sll_circular_create_~last~0#1.base|) |c_ULTIMATE.start_sll_circular_create_~last~0#1.offset| v_ArrVal_388))) |ULTIMATE.start_sll_circular_create_~new_head~0#1.base| v_ArrVal_396) |c_ULTIMATE.start_sll_circular_create_~head~0#1.base|))) (or (= |c_ULTIMATE.start_main_~data_init~0#1| (select .cse20 .cse1)) (= |c_ULTIMATE.start_main_~data_init~0#1| (select .cse20 .cse2))))) (forall ((|ULTIMATE.start_sll_circular_create_~last~0#1.base| Int) (v_ArrVal_396 (Array Int Int)) (|ULTIMATE.start_sll_circular_create_~new_head~0#1.base| Int)) (or (= (select v_ArrVal_396 .cse1) |c_ULTIMATE.start_main_~data_init~0#1|) (forall ((v_ArrVal_388 Int) (v_ArrVal_384 (Array Int Int))) (let ((.cse22 (select (store (let ((.cse23 (store |c_#memory_int| |ULTIMATE.start_sll_circular_create_~new_head~0#1.base| v_ArrVal_384))) (store .cse23 |ULTIMATE.start_sll_circular_create_~last~0#1.base| (store (select .cse23 |ULTIMATE.start_sll_circular_create_~last~0#1.base|) |c_ULTIMATE.start_sll_circular_create_~last~0#1.offset| v_ArrVal_388))) |ULTIMATE.start_sll_circular_create_~new_head~0#1.base| v_ArrVal_396) |c_ULTIMATE.start_sll_circular_create_~head~0#1.base|))) (or (= |c_ULTIMATE.start_main_~data_init~0#1| (select .cse22 .cse1)) (= |c_ULTIMATE.start_main_~data_init~0#1| (select .cse22 .cse2))))))) (forall ((v_ArrVal_388 Int) (v_ArrVal_384 (Array Int Int)) (|ULTIMATE.start_sll_circular_create_~last~0#1.base| Int) (v_ArrVal_396 (Array Int Int)) (|ULTIMATE.start_sll_circular_create_~new_head~0#1.base| Int)) (or (= (select v_ArrVal_396 .cse1) |c_ULTIMATE.start_main_~data_init~0#1|) (= |c_ULTIMATE.start_main_~data_init~0#1| (select (select (store (let ((.cse24 (store |c_#memory_int| |ULTIMATE.start_sll_circular_create_~new_head~0#1.base| v_ArrVal_384))) (store .cse24 |ULTIMATE.start_sll_circular_create_~last~0#1.base| (store (select .cse24 |ULTIMATE.start_sll_circular_create_~last~0#1.base|) |c_ULTIMATE.start_sll_circular_create_~last~0#1.offset| v_ArrVal_388))) |ULTIMATE.start_sll_circular_create_~new_head~0#1.base| v_ArrVal_396) |c_ULTIMATE.start_sll_circular_create_~head~0#1.base|) .cse2)))) (forall ((v_ArrVal_388 Int) (v_ArrVal_384 (Array Int Int)) (|ULTIMATE.start_sll_circular_create_~last~0#1.base| Int) (v_ArrVal_396 (Array Int Int)) (|ULTIMATE.start_sll_circular_create_~new_head~0#1.base| Int)) (= |c_ULTIMATE.start_main_~data_init~0#1| (select (select (store (let ((.cse25 (store |c_#memory_int| |ULTIMATE.start_sll_circular_create_~new_head~0#1.base| v_ArrVal_384))) (store .cse25 |ULTIMATE.start_sll_circular_create_~last~0#1.base| (store (select .cse25 |ULTIMATE.start_sll_circular_create_~last~0#1.base|) |c_ULTIMATE.start_sll_circular_create_~last~0#1.offset| v_ArrVal_388))) |ULTIMATE.start_sll_circular_create_~new_head~0#1.base| v_ArrVal_396) |c_ULTIMATE.start_sll_circular_create_~head~0#1.base|) .cse2)))) .cse8) (forall ((|ULTIMATE.start_sll_circular_create_~last~0#1.base| Int) (|ULTIMATE.start_sll_circular_create_~new_head~0#1.base| Int)) (or (= |ULTIMATE.start_sll_circular_create_~new_head~0#1.base| |ULTIMATE.start_sll_circular_create_~last~0#1.base|) (forall ((v_ArrVal_388 Int) (v_ArrVal_384 (Array Int Int)) (v_ArrVal_396 (Array Int Int))) (= |c_ULTIMATE.start_main_~data_init~0#1| (select (select (store (let ((.cse26 (store |c_#memory_int| |ULTIMATE.start_sll_circular_create_~new_head~0#1.base| v_ArrVal_384))) (store .cse26 |ULTIMATE.start_sll_circular_create_~last~0#1.base| (store (select .cse26 |ULTIMATE.start_sll_circular_create_~last~0#1.base|) |c_ULTIMATE.start_sll_circular_create_~last~0#1.offset| v_ArrVal_388))) |ULTIMATE.start_sll_circular_create_~new_head~0#1.base| v_ArrVal_396) |c_ULTIMATE.start_sll_circular_create_~head~0#1.base|) .cse2)))))) (= |c_ULTIMATE.start_sll_circular_create_~head~0#1.offset| |c_ULTIMATE.start_sll_circular_create_~new_head~0#1.offset|)))))
(check-sat)
(exit)
